highs.opt
write_solution_to_file=true
solution_file=flexModel3.sol 
write_solution_style=2